
Gurobi 11.0.1 (win64) logging started Thu Mar 14 08:07:34 2024

Set parameter LogFile to value "C:\Projetos\Job_Rotation_Algorithms\Outputs\GurobiLogs\gurobi_log-output-26_wee-c67-CostaMirallesModel-NoExtraConstraint-2.log"
Gurobi Optimizer version 11.0.1 build v11.0.1rc0 (win64 - Windows 10.0 (19045.2))

CPU model: 11th Gen Intel(R) Core(TM) i7-1165G7 @ 2.80GHz, instruction set [SSE2|AVX|AVX2|AVX512]
Thread count: 4 physical cores, 8 logical processors, using up to 1 threads


Gurobi 11.0.1 (win64) logging started Fri Mar 15 00:45:00 2024

Set parameter LogFile to value "C:\Projetos\Job_Rotation_Algorithms\Outputs\GurobiLogs\gurobi_log-output-26_wee-c67-CostaMirallesModel-NoExtraConstraint-2.log"
Gurobi Optimizer version 11.0.1 build v11.0.1rc0 (win64 - Windows 10.0 (19045.2))

CPU model: 11th Gen Intel(R) Core(TM) i7-1165G7 @ 2.80GHz, instruction set [SSE2|AVX|AVX2|AVX512]
Thread count: 4 physical cores, 8 logical processors, using up to 1 threads


Gurobi 11.0.1 (win64) logging started Tue Mar 19 09:19:03 2024

Set parameter LogFile to value "C:\Projetos\Job_Rotation_Algorithms\Outputs\GurobiLogs\gurobi_log-output-26_wee-c67-CostaMirallesModel-NoExtraConstraint-2.log"
Gurobi Optimizer version 11.0.1 build v11.0.1rc0 (win64 - Windows 10.0 (19045.2))

CPU model: 11th Gen Intel(R) Core(TM) i7-1165G7 @ 2.80GHz, instruction set [SSE2|AVX|AVX2|AVX512]
Thread count: 4 physical cores, 8 logical processors, using up to 1 threads


Gurobi 11.0.1 (win64) logging started Mon Apr  1 12:48:07 2024

Set parameter LogFile to value "C:\Projetos\Job_Rotation_Algorithms\Outputs\GurobiLogs\gurobi_log-output-26_wee-c67-CostaMirallesModel-NoExtraConstraint-2.log"
Gurobi Optimizer version 11.0.1 build v11.0.1rc0 (win64 - Windows 10.0 (19045.2))

CPU model: 11th Gen Intel(R) Core(TM) i7-1165G7 @ 2.80GHz, instruction set [SSE2|AVX|AVX2|AVX512]
Thread count: 4 physical cores, 8 logical processors, using up to 1 threads


Gurobi 11.0.1 (win64) logging started Mon Apr  1 21:35:57 2024

Set parameter LogFile to value "C:\Projetos\Job_Rotation_Algorithms\Outputs\GurobiLogs\gurobi_log-output-26_wee-c67-CostaMirallesModel-NoExtraConstraint-2.log"
Gurobi Optimizer version 11.0.1 build v11.0.1rc0 (win64 - Windows 10.0 (19045.2))

CPU model: 11th Gen Intel(R) Core(TM) i7-1165G7 @ 2.80GHz, instruction set [SSE2|AVX|AVX2|AVX512]
Thread count: 4 physical cores, 8 logical processors, using up to 1 threads


Gurobi 11.0.1 (win64) logging started Thu Apr  4 23:33:29 2024

Set parameter LogFile to value "C:\Projetos\Job_Rotation_Algorithms\Outputs\GurobiLogs\gurobi_log-output-26_wee-c67-CostaMirallesModel-NoExtraConstraint-2.log"
Gurobi Optimizer version 11.0.1 build v11.0.1rc0 (win64 - Windows 10.0 (19045.2))

CPU model: 11th Gen Intel(R) Core(TM) i7-1165G7 @ 2.80GHz, instruction set [SSE2|AVX|AVX2|AVX512]
Thread count: 4 physical cores, 8 logical processors, using up to 1 threads


Gurobi 11.0.1 (win64) logging started Sat Apr  6 13:03:05 2024

Set parameter LogFile to value "C:\Projetos\Job_Rotation_Algorithms\Outputs\GurobiLogs\gurobi_log-output-26_wee-c67-CostaMirallesModel-NoExtraConstraint-2.log"
Gurobi Optimizer version 11.0.1 build v11.0.1rc0 (win64 - Windows 10.0 (19045.2))

CPU model: 11th Gen Intel(R) Core(TM) i7-1165G7 @ 2.80GHz, instruction set [SSE2|AVX|AVX2|AVX512]
Thread count: 4 physical cores, 8 logical processors, using up to 1 threads


Gurobi 11.0.1 (win64) logging started Sun Apr  7 02:35:57 2024

Set parameter LogFile to value "C:\Projetos\Job_Rotation_Algorithms\Outputs\GurobiLogs\gurobi_log-output-26_wee-c67-CostaMirallesModel-NoExtraConstraint-2.log"
Gurobi Optimizer version 11.0.1 build v11.0.1rc0 (win64 - Windows 10.0 (19045.2))

CPU model: 11th Gen Intel(R) Core(TM) i7-1165G7 @ 2.80GHz, instruction set [SSE2|AVX|AVX2|AVX512]
Thread count: 4 physical cores, 8 logical processors, using up to 1 threads


Gurobi 11.0.1 (win64) logging started Sun Apr  7 09:48:53 2024

Set parameter LogFile to value "C:\Projetos\Job_Rotation_Algorithms\Outputs\GurobiLogs\gurobi_log-output-26_wee-c67-CostaMirallesModel-NoExtraConstraint-2.log"
Gurobi Optimizer version 11.0.1 build v11.0.1rc0 (win64 - Windows 10.0 (19045.2))

CPU model: 11th Gen Intel(R) Core(TM) i7-1165G7 @ 2.80GHz, instruction set [SSE2|AVX|AVX2|AVX512]
Thread count: 4 physical cores, 8 logical processors, using up to 1 threads


Gurobi 11.0.1 (win64) logging started Tue Apr  9 08:07:29 2024

Set parameter LogFile to value "C:\Projetos\Job_Rotation_Algorithms\Outputs\GurobiLogs\gurobi_log-output-26_wee-c67-CostaMirallesModel-NoExtraConstraint-2.log"
Gurobi Optimizer version 11.0.1 build v11.0.1rc0 (win64 - Windows 10.0 (19045.2))

CPU model: 11th Gen Intel(R) Core(TM) i7-1165G7 @ 2.80GHz, instruction set [SSE2|AVX|AVX2|AVX512]
Thread count: 4 physical cores, 8 logical processors, using up to 1 threads


Gurobi 11.0.1 (win64) logging started Wed Apr 10 17:37:09 2024

Set parameter LogFile to value "C:\Projetos\Job_Rotation_Algorithms\Outputs\GurobiLogs\gurobi_log-output-26_wee-c67-CostaMirallesModel-NoExtraConstraint-2.log"
Gurobi Optimizer version 11.0.1 build v11.0.1rc0 (win64 - Windows 10.0 (19045.2))

CPU model: 11th Gen Intel(R) Core(TM) i7-1165G7 @ 2.80GHz, instruction set [SSE2|AVX|AVX2|AVX512]
Thread count: 4 physical cores, 8 logical processors, using up to 1 threads


Gurobi 11.0.1 (win64) logging started Thu Apr 11 01:42:26 2024

Set parameter LogFile to value "C:\Projetos\Job_Rotation_Algorithms\Outputs\GurobiLogs\gurobi_log-output-26_wee-c67-CostaMirallesModel-NoExtraConstraint-2.log"
Gurobi Optimizer version 11.0.1 build v11.0.1rc0 (win64 - Windows 10.0 (19045.2))

CPU model: 11th Gen Intel(R) Core(TM) i7-1165G7 @ 2.80GHz, instruction set [SSE2|AVX|AVX2|AVX512]
Thread count: 4 physical cores, 8 logical processors, using up to 1 threads


Gurobi 11.0.1 (win64) logging started Sun Apr 21 02:59:01 2024

Set parameter LogFile to value "C:\Projetos\Job_Rotation_Algorithms\Outputs\GurobiLogs\gurobi_log-output-26_wee-c67-CostaMirallesModel-NoExtraConstraint-2.log"
Gurobi Optimizer version 11.0.1 build v11.0.1rc0 (win64 - Windows 10.0 (19045.2))

CPU model: 11th Gen Intel(R) Core(TM) i7-1165G7 @ 2.80GHz, instruction set [SSE2|AVX|AVX2|AVX512]
Thread count: 4 physical cores, 8 logical processors, using up to 1 threads


Gurobi 11.0.1 (win64) logging started Fri Apr 26 07:41:01 2024

Set parameter LogFile to value "C:\Projetos\Job_Rotation_Algorithms\Outputs\GurobiLogs\gurobi_log-output-26_wee-c67-CostaMirallesModel-NoExtraConstraint-2.log"
Gurobi Optimizer version 11.0.1 build v11.0.1rc0 (win64 - Windows 10.0 (19045.2))

CPU model: 11th Gen Intel(R) Core(TM) i7-1165G7 @ 2.80GHz, instruction set [SSE2|AVX|AVX2|AVX512]
Thread count: 4 physical cores, 8 logical processors, using up to 1 threads


Gurobi 11.0.1 (win64) logging started Sat Apr 27 04:32:33 2024

Set parameter LogFile to value "C:\Projetos\Job_Rotation_Algorithms\Outputs\GurobiLogs\gurobi_log-output-26_wee-c67-CostaMirallesModel-NoExtraConstraint-2.log"
Gurobi Optimizer version 11.0.1 build v11.0.1rc0 (win64 - Windows 10.0 (19045.2))

CPU model: 11th Gen Intel(R) Core(TM) i7-1165G7 @ 2.80GHz, instruction set [SSE2|AVX|AVX2|AVX512]
Thread count: 4 physical cores, 8 logical processors, using up to 1 threads


Gurobi 11.0.1 (win64) logging started Sat Apr 27 14:50:31 2024

Set parameter LogFile to value "C:\Projetos\Job_Rotation_Algorithms\Outputs\GurobiLogs\gurobi_log-output-26_wee-c67-CostaMirallesModel-NoExtraConstraint-2.log"
Gurobi Optimizer version 11.0.1 build v11.0.1rc0 (win64 - Windows 10.0 (19045.2))

CPU model: 11th Gen Intel(R) Core(TM) i7-1165G7 @ 2.80GHz, instruction set [SSE2|AVX|AVX2|AVX512]
Thread count: 4 physical cores, 8 logical processors, using up to 1 threads


Gurobi 11.0.1 (win64) logging started Mon Apr 29 07:46:21 2024

Set parameter LogFile to value "C:\Projetos\Job_Rotation_Algorithms\Outputs\GurobiLogs\gurobi_log-output-26_wee-c67-CostaMirallesModel-NoExtraConstraint-2.log"
Gurobi Optimizer version 11.0.1 build v11.0.1rc0 (win64 - Windows 10.0 (19045.2))

CPU model: 11th Gen Intel(R) Core(TM) i7-1165G7 @ 2.80GHz, instruction set [SSE2|AVX|AVX2|AVX512]
Thread count: 4 physical cores, 8 logical processors, using up to 1 threads

WLS license 901038 - registered to Bitka Analytics
Optimize a model with 3164 rows, 16873 columns and 265583 nonzeros
Model fingerprint: 0x4dc8e3a0
Variable types: 2 continuous, 16871 integer (16871 binary)
Coefficient statistics:
  Matrix range     [1e+00, 8e+01]
  Objective range  [1e+00, 1e+00]
  Bounds range     [1e+00, 1e+02]
  RHS range        [1e+00, 1e+02]
Presolve added 885 rows and 427 columns
Presolve time: 0.89s
Presolved: 4049 rows, 17300 columns, 120968 nonzeros
Variable types: 0 continuous, 17300 integer (16647 binary)

Root relaxation: objective 1.500000e+02, 4483 iterations, 0.31 seconds (0.38 work units)

    Nodes    |    Current Node    |     Objective Bounds      |     Work
 Expl Unexpl |  Obj  Depth IntInf | Incumbent    BestBd   Gap | It/Node Time

     0     0  150.00000    0  103          -  150.00000      -     -    1s
     0     0  150.00000    0   95          -  150.00000      -     -    1s
     0     0  150.00000    0   95          -  150.00000      -     -    2s
     0     0  150.00000    0  100          -  150.00000      -     -    3s
     0     0  150.00000    0   97          -  150.00000      -     -    3s
     0     0  150.00000    0  779          -  150.00000      -     -    3s
     0     0  150.00000    0  682          -  150.00000      -     -    4s
     0     0  150.00000    0  672          -  150.00000      -     -    4s
     0     0  150.00000    0  596          -  150.00000      -     -    4s
     0     0  150.00000    0  592          -  150.00000      -     -    4s
     0     0  150.00000    0  120          -  150.00000      -     -    5s
     0     0  150.00000    0  186          -  150.00000      -     -    5s
     0     0  150.00000    0  182          -  150.00000      -     -    5s
     0     0  150.00000    0  186          -  150.00000      -     -    5s
     0     0  150.00000    0  134          -  150.00000      -     -    6s
     0     0  150.00000    0  131          -  150.00000      -     -    6s
     0     0  150.00000    0  299          -  150.00000      -     -    6s
     0     0  150.00000    0  325          -  150.00000      -     -    6s
     0     0  150.00000    0  323          -  150.00000      -     -    6s
     0     0  150.00000    0  153          -  150.00000      -     -    7s
     0     0  150.00000    0  168          -  150.00000      -     -    7s
     0     0  150.00000    0  163          -  150.00000      -     -    7s
     0     0  150.00000    0  163          -  150.00000      -     -    8s
     0     2  150.00000    0  161          -  150.00000      -     -   10s
   109   107  150.00000   70  427          -  150.00000      -   211   15s
   251   216  150.00000   76  400          -  150.00000      -   203   20s
   466   346  150.00000   24  131          -  150.00000      -   168   25s
   606   455  150.00000   30   95          -  150.00000      -   145   37s
   610   458  150.00000   65  623          -  150.00000      -   145   40s
   615   461  150.00000   18  151          -  150.00000      -   143   47s
   619   464  150.00000   16  141          -  150.00000      -   142   51s
   628   472  150.00000   20  138          -  150.00000      -   323   65s
   726   537  150.00000   69  404          -  150.00000      -   306   70s
   746   550  150.00000   79  510          -  150.00000      -   311   75s
   779   568 infeasible   95               -  150.00000      -   312   80s
   797   562 infeasible   99               -  150.00000      -   322   85s
   815   568  150.00000   84  357          -  150.00000      -   323   90s
   836   578  150.00000   95  183          -  150.00000      -   326   95s
   883   585  150.00000   85  102          -  150.00000      -   330  100s
   926   593 infeasible  103               -  150.00000      -   330  105s
   971   592  150.00000   89  246          -  150.00000      -   325  110s
  1014   601  140.20711  109  232          -  150.00000      -   324  115s
  1143   649  150.00000   65  141          -  150.00000      -   301  120s
  1263   683  150.00000   76  268          -  150.00000      -   280  125s
  1448   757  150.00000   94  261          -  150.00000      -   254  130s
  1576   781  150.00000   52  483          -  150.00000      -   240  135s
  1729   839  150.00000   65  117          -  150.00000      -   233  140s
  1828   861 infeasible  116               -  150.00000      -   226  145s
  1964   903  150.00000   82  224          -  150.00000      -   219  150s
  2150   977 infeasible  116               -  150.00000      -   207  155s
  2326  1089  150.00000   76  131          -  150.00000      -   199  160s
  2455  1173  150.00000   74  282          -  150.00000      -   194  165s
  2581  1264  150.00000   95   97          -  150.00000      -   193  170s
  2728  1362 infeasible  114               -  150.00000      -   191  175s
  2850  1438  150.00000  108  186          -  150.00000      -   189  180s
  3000  1550 infeasible  124               -  150.00000      -   187  185s
  3160  1659  150.00000   96  426          -  150.00000      -   184  190s
  3346  1772 infeasible  103               -  150.00000      -   180  195s
  3498  1862  150.00000   78   79          -  150.00000      -   179  200s
  3718  2003  150.00000  110  213          -  150.00000      -   175  205s
  3937  2090 infeasible  104               -  150.00000      -   170  210s
  4131  2190  150.00000  100  220          -  150.00000      -   167  215s
  4361  2331 infeasible  104               -  150.00000      -   164  220s
  4602  2484  150.00000   88  204          -  150.00000      -   160  225s
  4814  2576 infeasible   99               -  150.00000      -   157  230s
  4960  2616  150.00000   93  137          -  150.00000      -   156  235s
  5101  2685  150.00000  109  169          -  150.00000      -   156  241s
  5204  2736  150.00000  112  248          -  150.00000      -   156  245s
  5381  2849  150.00000  106  205          -  150.00000      -   155  250s
  5528  2941 infeasible  110               -  150.00000      -   156  255s
  5729  3056 infeasible  118               -  150.00000      -   155  260s
  5988  3171  150.00000   92  131          -  150.00000      -   152  265s
  6218  3311  150.00000  112  230          -  150.00000      -   151  270s
  6467  3441 infeasible  105               -  150.00000      -   148  275s
  6581  3468  150.00000  105  119          -  150.00000      -   149  280s
  6693  3523 infeasible  112               -  150.00000      -   150  285s
  6846  3587 infeasible  125               -  150.00000      -   150  290s
  6994  3671  150.00000  123  249          -  150.00000      -   150  295s
  7101  3735  150.00000  123  297          -  150.00000      -   150  300s
  7184  3773  150.00000  115  137          -  150.00000      -   151  305s
  7278  3801  150.00000  116  296          -  150.00000      -   152  310s
  7352  3821  149.70664  113  209          -  150.00000      -   152  315s
  7505  3921 infeasible  105               -  150.00000      -   152  320s
  7628  3989  150.00000  102  207          -  150.00000      -   151  325s
  7816  4089 infeasible  106               -  150.00000      -   150  330s
  7949  4165 infeasible  105               -  150.00000      -   150  335s
  8135  4252 infeasible  119               -  150.00000      -   149  340s
  8263  4299  149.90075  115  316          -  150.00000      -   149  345s
  8402  4380 infeasible  129               -  150.00000      -   149  350s
  8424  4392  150.00000  106  267          -  150.00000      -   149  355s
  8536  4450  150.00000  100  209          -  150.00000      -   149  360s
  8700  4560 infeasible  131               -  150.00000      -   148  365s
  8850  4629 infeasible  102               -  150.00000      -   148  370s
  8988  4695  150.00000   93  193          -  150.00000      -   149  375s
  9105  4734  150.00000  108  252          -  150.00000      -   149  380s
  9296  4825 infeasible  124               -  150.00000      -   148  385s
  9491  4922  150.00000  106  220          -  150.00000      -   148  390s
  9694  4979 infeasible  106               -  150.00000      -   147  395s
  9948  5060 infeasible  119               -  150.00000      -   145  400s
 10202  5226 infeasible  124               -  150.00000      -   144  488s
 10295  5281  150.00000  106  184          -  150.00000      -   144  490s
 10567  5445  148.84274  133  359          -  150.00000      -   142  495s
 10885  5601 infeasible  109               -  150.00000      -   140  500s
 11093  5720  144.29230  153  105          -  150.00000      -   139  505s
 11307  5848  150.00000  109  168          -  150.00000      -   138  510s
 11465  5917 infeasible  113               -  150.00000      -   138  515s
 11779  6060 infeasible  107               -  150.00000      -   137  520s
 11845  6086 infeasible  115               -  150.00000      -   136  525s
 12030  6160 infeasible  106               -  150.00000      -   136  530s
 12158  6220 infeasible  103               -  150.00000      -   136  535s
 12307  6275 infeasible  115               -  150.00000      -   135  540s
 12514  6328  147.00000  109  229          -  150.00000      -   135  545s
 12627  6388  150.00000  108  213          -  150.00000      -   135  550s
 12748  6445  150.00000  102  135          -  150.00000      -   135  555s
 12917  6536  150.00000  110  153          -  150.00000      -   134  560s
 13026  6585 infeasible  123               -  150.00000      -   134  565s
 13201  6669  150.00000  113  189          -  150.00000      -   134  570s
 13258  6680  150.00000  108  199          -  150.00000      -   134  575s
 13337  6711 infeasible  122               -  150.00000      -   134  580s
 13456  6768 infeasible  148               -  150.00000      -   134  585s
 13605  6841  150.00000  121  262          -  150.00000      -   134  590s
 13686  6881  149.99015  107  396          -  150.00000      -   134  595s
 13783  6943 infeasible  117               -  150.00000      -   134  600s
 13892  6977 infeasible  105               -  150.00000      -   134  605s
 14004  7015 infeasible   99               -  150.00000      -   134  610s
 14089  7046 infeasible  108               -  150.00000      -   134  615s
 14222  7112  150.00000  105  141          -  150.00000      -   134  620s
 14294  7165  150.00000   95  266          -  150.00000      -   135  625s
 14372  7220  150.00000  112  230          -  150.00000      -   135  630s
 14445  7263  150.00000   96  206          -  150.00000      -   136  635s
 14516  7328  150.00000  129  182          -  150.00000      -   136  640s
 14620  7382  150.00000   98  302          -  150.00000      -   136  645s
 14718  7456  150.00000  104  266          -  150.00000      -   136  650s
 14810  7520 infeasible  116               -  150.00000      -   136  655s
 14983  7608  150.00000  105  265          -  150.00000      -   135  660s
 15026  7637  150.00000  116  183          -  150.00000      -   136  670s
 15048  7637  150.00000   88  263          -  150.00000      -   136  675s
 15066  7655  149.00000  100  243          -  150.00000      -   136  680s
 15173  7737  150.00000  102  111          -  150.00000      -   136  685s
 15282  7794 infeasible  103               -  150.00000      -   136  690s
 15303  7802  150.00000   97  250          -  150.00000      -   136  696s
 15362  7825 infeasible  114               -  150.00000      -   136  700s
 15474  7870 infeasible  127               -  150.00000      -   137  705s
 15567  7894  150.00000  116  237          -  150.00000      -   137  710s
 15606  7909 infeasible  114               -  150.00000      -   137  715s
 15739  7989  150.00000  112  293          -  150.00000      -   137  720s
 15842  8038  150.00000  113  250          -  150.00000      -   136  725s
 15898  8063 infeasible  114               -  150.00000      -   137  730s
 16054  8142  150.00000   96  268          -  150.00000      -   137  735s
 16115  8182  148.99121  129  284          -  150.00000      -   137  740s
 16208  8223  150.00000  116  250          -  150.00000      -   137  745s
 16316  8267 infeasible  120               -  150.00000      -   137  750s
 16447  8324  150.00000  113  196          -  150.00000      -   136  755s
 16605  8400  150.00000   97  178          -  150.00000      -   136  760s
 16719  8473  150.00000  103  209          -  150.00000      -   136  765s
 16954  8591  150.00000  103  236          -  150.00000      -   135  770s
 17256  8734  150.00000  143  189          -  150.00000      -   134  775s
 17495  8887  150.00000  124  397          -  150.00000      -   134  780s
 17701  8984 infeasible  113               -  150.00000      -   133  785s
 17923  9114  150.00000  115  204          -  150.00000      -   133  790s
 18099  9239 infeasible  143               -  150.00000      -   133  795s
 18245  9312 infeasible  150               -  150.00000      -   133  800s
 18410  9412  150.00000  109  199          -  150.00000      -   132  805s
 18557  9474 infeasible  123               -  150.00000      -   132  810s
 18761  9569  150.00000  111  218          -  150.00000      -   132  815s
 18988  9688  150.00000  105  212          -  150.00000      -   131  820s
 19261  9799 infeasible  107               -  150.00000      -   131  825s
 19350  9830  150.00000   89  176          -  150.00000      -   131  830s
 19499  9890  150.00000  103  188          -  150.00000      -   131  835s
 19614  9957  150.00000  114  200          -  150.00000      -   131  840s
 19822 10030  150.00000  115  191          -  150.00000      -   131  845s
 20031 10135  150.00000  125   88          -  150.00000      -   131  850s
 20068 10165 infeasible  142               -  150.00000      -   131  855s
 20215 10248  150.00000  127  305          -  150.00000      -   131  860s
 20335 10302 infeasible  136               -  150.00000      -   131  865s
 20499 10388  150.00000   76  219          -  150.00000      -   131  870s
 20771 10571 infeasible  113               -  150.00000      -   130  875s
 20848 10623  150.00000  112  178          -  150.00000      -   131  880s
 21096 10778  150.00000  109  208          -  150.00000      -   130  885s
 21198 10855 infeasible  112               -  150.00000      -   130  890s
 21370 10968 infeasible  120               -  150.00000      -   131  895s
 21516 11032 infeasible  114               -  150.00000      -   131  900s
 21755 11186 infeasible  106               -  150.00000      -   130  905s
 21866 11252  150.00000  111  272          -  150.00000      -   130  910s
 21955 11289  150.00000  101  191          -  150.00000      -   131  915s
 22142 11390 infeasible   95               -  150.00000      -   130  920s
 22193 11408  150.00000   87  299          -  150.00000      -   131  925s
 22376 11548 infeasible  126               -  150.00000      -   131  930s
 22455 11593 infeasible  110               -  150.00000      -   131  935s
 22562 11650  150.00000  112  247          -  150.00000      -   131  940s
 22658 11718  150.00000  104  224          -  150.00000      -   131  945s
 22795 11788  150.00000   95  215          -  150.00000      -   132  950s
 22880 11843 infeasible  121               -  150.00000      -   132  955s
 23019 11906 infeasible  115               -  150.00000      -   132  960s
 23086 11952  150.00000  113  274          -  150.00000      -   132  965s
 23272 12044 infeasible  114               -  150.00000      -   132  970s
 23405 12116  150.00000  115  133          -  150.00000      -   132  975s
 23521 12170 infeasible  118               -  150.00000      -   132  980s
 23570 12180 infeasible  112               -  150.00000      -   132  985s
 23597 12192  150.00000  107  207          -  150.00000      -   133  991s
 23626 12191 infeasible  104               -  150.00000      -   133  995s
 23718 12228 infeasible   95               -  150.00000      -   133 1000s
 23847 12301  149.90848  110  307          -  150.00000      -   133 1005s
 24049 12428 infeasible  125               -  150.00000      -   133 1010s
 24159 12493  150.00000  124  257          -  150.00000      -   133 1015s
 24229 12508 infeasible  116               -  150.00000      -   134 1020s
 24313 12554  150.00000  101  251          -  150.00000      -   134 1026s
 24394 12618 infeasible  135               -  150.00000      -   134 1030s
 24572 12704 infeasible   93               -  150.00000      -   133 1035s
 24628 12709 infeasible   96               -  150.00000      -   134 1040s
 24730 12747  150.00000  103  251          -  150.00000      -   134 1045s
 24782 12757  149.00000  105  281          -  150.00000      -   134 1050s
 24908 12777  150.00000   99  165          -  150.00000      -   135 1055s
 25084 12842 infeasible  107               -  150.00000      -   134 1060s
 25311 12941  150.00000  127  185          -  150.00000      -   134 1065s
 25384 12976 infeasible  131               -  150.00000      -   134 1070s
 25423 12988  150.00000  100  251          -  150.00000      -   134 1075s
 25474 13011 infeasible  123               -  150.00000      -   135 1080s
 25505 13024  150.00000  115  251          -  150.00000      -   135 1086s
 25556 13044  150.00000  123  186          -  150.00000      -   135 1090s
 25593 13055 infeasible  119               -  150.00000      -   135 1095s
 25646 13058  148.68022  118  365          -  150.00000      -   135 1100s
H25775 13089                     127.0000000  150.00000  18.1%   135 1105s
H25775 13088                     132.0000000  150.00000  13.6%   135 1106s
H25775 12935                     143.0000000  150.00000  4.90%   135 1107s
 25788 12938  150.00000   97  274  143.00000  150.00000  4.90%   135 1110s
H25801 12890                     144.0000000  150.00000  4.17%   135 1113s
 25802 12893  150.00000  111  233  144.00000  150.00000  4.17%   135 1116s
H25828 12601                     148.0000000  150.00000  1.35%   135 1120s
H25859 12073                     149.0000000  150.00000  0.67%   135 1124s
 25861 12076  150.00000  115   95  149.00000  150.00000  0.67%   135 1136s
 25865 12079  150.00000  111  708  149.00000  150.00000  0.67%   135 1140s
H25865 11475                     150.0000000  150.00000  0.00%   135 1143s

Cutting planes:
  Gomory: 2
  Cover: 86
  Implied bound: 9
  Projected implied bound: 1
  Clique: 89
  MIR: 7
  StrongCG: 2
  Flow cover: 15
  GUB cover: 1
  Zero half: 1
  Relax-and-lift: 7

Explored 25865 nodes (3546715 simplex iterations) in 1143.67 seconds (778.72 work units)
Thread count was 1 (of 8 available processors)

Solution count 7: 150 149 148 ... 127

Optimal solution found (tolerance 1.00e-03)
Best objective 1.500000000000e+02, best bound 1.500000000000e+02, gap 0.0000%
